CMPL model generation - running

CMPL version: 1.11.0
Authors: Thomas Schleiff, Mike Steglich
Distributed under the GPLv3 

create model instance ...
write model instance ...
CMPL model generation - finished

Solver - running


Welcome to IBM(R) ILOG(R) CPLEX(R) Interactive Optimizer 12.7.1.0
  with Simplex, Mixed Integer & Barrier Optimizers
5725-A06 5725-A29 5724-Y48 5724-Y49 5724-Y54 5724-Y55 5655-Y21
Copyright IBM Corp. 1988, 2017.  All Rights Reserved.

Type 'help' for a list of available commands.
Type 'help' followed by a command name for more
information on commands.

CPLEX> Specified objective sense: MINIMIZE
Selected objective  name:  line[1]
Selected RHS        name:  RHS
Selected bound      name:  BOUND
Problem '/tmp/cmpl.T24458.mps' read.
Read time = 0.07 sec. (8.18 ticks)
CPLEX> CPXPARAM_Read_APIEncoding                        "UTF-8"
Tried aggregator 3 times.
MIP Presolve eliminated 19123 rows and 30481 columns.
MIP Presolve modified 340 coefficients.
Aggregator did 707 substitutions.
Reduced MIP has 2525 rows, 3405 columns, and 9923 nonzeros.
Reduced MIP has 3237 binaries, 0 generals, 0 SOSs, and 0 indicators.
Presolve time = 0.06 sec. (40.70 ticks)
Found incumbent of value 1492.460570 after 0.11 sec. (68.74 ticks)
Probing fixed 19 vars, tightened 0 bounds.
Probing time = 0.01 sec. (4.46 ticks)
Tried aggregator 1 time.
MIP Presolve eliminated 0 rows and 19 columns.
MIP Presolve modified 106 coefficients.
Reduced MIP has 2525 rows, 3386 columns, and 9885 nonzeros.
Reduced MIP has 3386 binaries, 0 generals, 0 SOSs, and 0 indicators.
Presolve time = 0.02 sec. (8.49 ticks)
Probing time = 0.01 sec. (2.71 ticks)
Clique table members: 6019.
MIP emphasis: balance optimality and feasibility.
MIP search method: dynamic search.
Parallel mode: none, using 1 thread.
Root relaxation solution time = 0.01 sec. (6.92 ticks)

        Nodes                                         Cuts/
   Node  Left     Objective  IInf  Best Integer    Best Bound    ItCnt     Gap

*     0+    0                         1492.4606      -21.7326           101.46%
      0     0      341.2286     1     1492.4606      341.2286      287   77.14%
*     0+    0                          343.1749      341.2286             0.57%
*     0+    0                          341.2571      341.2286             0.01%
      0     0        cutoff            341.2571      341.2286      287    0.01%
Elapsed time = 0.19 sec. (104.58 ticks, tree = 0.01 MB, solutions = 3)

Root node processing (before b&c):
  Real time             =    0.20 sec. (106.06 ticks)
Sequential b&c:
  Real time             =    0.00 sec. (0.00 ticks)
                          ------------
Total (root+branch&cut) =    0.20 sec. (106.06 ticks)

Solution pool: 3 solutions saved.

MIP - Integer optimal solution:  Objective =  3.4125714200e+02
Solution time =    0.20 sec.  Iterations = 287  Nodes = 0
Deterministic time = 106.16 ticks  (534.56 ticks/sec)

CPLEX> Incumbent solution written to file '/tmp/cmpl.T24458.gsol'.
CPLEX> 
CMPL: Time used for model generation: 1 seconds
CMPL: Time used for solving the model: 1 seconds


Solution written to ASCII file: results/output_generated_conf_0.7/2015-12-07-4/fair-nonlinear.sol

Solver - finished
